\ Model task scheduler
\ LP format - for model browsing. Use MPS format to capture full model detail.
Maximize
  2 x[0,0,0] + x[0,0,1] + 2 x[0,1,0] + x[0,1,1] + 2 x[0,2,0] + x[0,2,1]
   + 2 x[1,0,0] + x[1,0,1] + 2 x[1,1,0] + x[1,1,1] + 2 x[1,2,0] + x[1,2,1]
Subject To
 exclu.0[0,0]: - x[0,0,0] >= -1
 exclu.0[0,1]: - x[0,1,0] >= -1
 exclu.0[0,2]: - x[0,2,0] >= -1
 exclu.0[1,0]: - x[1,0,0] >= -1
 exclu.0[1,1]: - x[1,1,0] >= -1
 exclu.0[1,2]: - x[1,2,0] >= -1
 exclu.1[0,0]: - x[0,0,1] >= -1
 exclu.1[0,1]: - x[0,1,1] >= -1
 exclu.1[0,2]: - x[0,2,1] >= -1
 exclu.1[1,0]: - x[1,0,1] >= -1
 exclu.1[1,1]: - x[1,1,1] >= -1
 exclu.1[1,2]: - x[1,2,1] >= -1
 exclu.2[0,0]: - x[0,0,2] >= -1
 exclu.2[0,1]: - x[0,1,2] >= -1
 exclu.2[0,2]: - x[0,2,2] >= -1
 exclu.2[1,0]: - x[1,0,2] >= -1
 exclu.2[1,1]: - x[1,1,2] >= -1
 exclu.2[1,2]: - x[1,2,2] >= -1
 choque0.0: x[0,0,0] + x[0,1,0] + x[0,2,0] <= 1
 choque0.1: x[0,0,1] + x[0,1,1] + x[0,2,1] <= 1
 choque0.2: x[0,0,2] + x[0,1,2] + x[0,2,2] <= 1
 choque1.0: x[1,0,0] + x[1,1,0] + x[1,2,0] <= 1
 choque1.1: x[1,0,1] + x[1,1,1] + x[1,2,1] <= 1
 choque1.2: x[1,0,2] + x[1,1,2] + x[1,2,2] <= 1
 indisp.0.0: = 0
 indisp.0.1: = 0
 indisp.0.2: = 0
 indisp.1.0: = 0
 indisp.1.1: = 0
 indisp.1.2: = 0
 dep.0.1.0: x[0,0,0] + x[0,1,0] + x[1,0,0] + x[1,1,0] <= 1
 dep.0.1.1: x[0,0,1] + x[0,1,0] + x[0,1,1] + x[1,0,1] + x[1,1,0] + x[1,1,1]
   <= 1
 dep.0.1.2: x[0,0,2] + x[0,1,0] + x[0,1,1] + x[0,1,2] + x[1,0,2] + x[1,1,0]
   + x[1,1,1] + x[1,1,2] <= 1
 dep.0.2.0: x[0,0,0] + x[0,2,0] + x[1,0,0] + x[1,2,0] <= 1
 dep.0.2.1: x[0,0,1] + x[0,2,0] + x[0,2,1] + x[1,0,1] + x[1,2,0] + x[1,2,1]
   <= 1
 dep.0.2.2: x[0,0,2] + x[0,2,0] + x[0,2,1] + x[0,2,2] + x[1,0,2] + x[1,2,0]
   + x[1,2,1] + x[1,2,2] <= 1
 ocio.0[0,0]: >= 0
 ocio.0[0,1]: >= 0
 ocio.0[0,2]: >= 0
 ocio.0[1,0]: >= 0
 ocio.0[1,1]: >= 0
 ocio.0[1,2]: >= 0
 ocio.1[0,0]: x[0,0,1] >= 0
 ocio.1[0,1]: x[0,1,1] >= 0
 ocio.1[0,2]: x[0,2,1] >= 0
 ocio.1[1,0]: x[1,0,1] >= 0
 ocio.1[1,1]: x[1,1,1] >= 0
 ocio.1[1,2]: x[1,2,1] >= 0
 ocio.2[0,0]: 2 x[0,0,2] >= 0
 ocio.2[0,1]: 2 x[0,1,2] >= 0
 ocio.2[0,2]: 2 x[0,2,2] >= 0
 ocio.2[1,0]: 2 x[1,0,2] >= 0
 ocio.2[1,1]: 2 x[1,1,2] >= 0
 ocio.2[1,2]: 2 x[1,2,2] >= 0
 unic.0: x[0,0,0] + x[0,0,1] + x[0,0,2] + x[1,0,0] + x[1,0,1] + x[1,0,2]
   = 1
 unic.1: x[0,1,0] + x[0,1,1] + x[0,1,2] + x[1,1,0] + x[1,1,1] + x[1,1,2]
   = 1
 unic.2: x[0,2,0] + x[0,2,1] + x[0,2,2] + x[1,2,0] + x[1,2,1] + x[1,2,2]
   = 1
Bounds
Binaries
 x[0,0,0] x[0,0,1] x[0,0,2] x[0,1,0] x[0,1,1] x[0,1,2] x[0,2,0] x[0,2,1]
 x[0,2,2] x[1,0,0] x[1,0,1] x[1,0,2] x[1,1,0] x[1,1,1] x[1,1,2] x[1,2,0]
 x[1,2,1] x[1,2,2]
End
